Maximize
  - 3.400675368888 edge_0_1_0_0 - 3.2232840298869 edge_0_2_0_0
   - 4.6827372258898 edge_0_3_0_0 - 2.754760333689 edge_0_4_0_0
   - 2.7599798344012 edge_0_5_0_0 - 4.70573363308 edge_0_6_0_0
   - 1.7555916496744 edge_0_8_0_0 - 1.2665292319314 edge_0_10_0_0
   - 2.1892229383152 edge_0_12_0_0 - 2.5385703363016 edge_0_13_0_0
   + 0.5705336267418667 edge_1_2_0_0 - 0.0351278348352424 edge_1_3_0_0
   + 0.2648336453144637 edge_1_4_0_0 + 0.262360995006198 edge_1_5_0_0
   + 0.2943710767093113 edge_1_6_0_0 + 0.2515494848866464 edge_1_7_0_0
   + 0.2073960322547931 edge_1_8_0_0 + 0.3132418801948361 edge_1_10_0_0
   + 0.2610970788819987 edge_1_11_0_0 + 0.1149844988974457 edge_1_12_0_0
   - 0.1441208100564135 edge_1_15_0_0 + 0.1174289885771953 edge_1_16_0_0
   - 0.1463883903429432 edge_1_17_0_0 + 0.0496406363598597 edge_1_19_0_0
   + 0.9360154943056855 edge_2_1_0_0 + 1.871679654869972 edge_2_3_0_0
   + 0.8238037033465888 edge_2_4_0_0 + 1.542945829201601 edge_2_5_0_0
   + 1.342241861196822 edge_2_6_0_0 + 0.3871154874309858 edge_2_7_0_0
   + 1.023954851323389 edge_2_8_0_0 + 0.3432669263985157 edge_2_10_0_0
   + 0.6538058103736628 edge_2_11_0_0 - 0.2214621747080699 edge_2_12_0_0
   - 0.2048526894957441 edge_2_13_0_0 + 0.7644119130683319 edge_2_14_0_0
   - 0.2522332753700451 edge_2_15_0_0 + 0.3253219674606492 edge_2_16_0_0
   - 0.5491188920528833 edge_2_17_0_0 + 0.1901799350879213 edge_2_19_0_0
   + 1.576672279312422 edge_2_20_0_0 - 0.837551589154192 edge_3_1_0_0
   - 0.3113646521414593 edge_3_2_0_0 + 0.2145862745866546 edge_3_4_0_0
   - 0.0681844488988316 edge_3_5_0_0 - 0.0783306167413225 edge_3_6_0_0
   - 0.6351512543839769 edge_3_8_0_0 - 0.5729899558870212 edge_3_10_0_0
   + 0.610196851233533 edge_4_2_0_0 - 0.7011047594383564 edge_4_3_0_0
   + 3.179148890825455 edge_4_5_0_0 + 1.61463024651662 edge_4_6_0_0
   + 2.000871178064111 edge_4_7_0_0 + 0.7313416018990612 edge_4_8_0_0
   - 0.1132191986232688 edge_4_10_0_0 + 0.5471332375899099 edge_4_13_0_0
   - 0.3442083293381599 edge_4_16_0_0 + 0.6501556128861823 edge_4_19_0_0
   + 0.5909775144181132 edge_4_20_0_0 + 0.9642197977703478 edge_5_1_0_0
   + 0.6130236660333708 edge_5_2_0_0 + 0.8224427893028693 edge_5_3_0_0
   + 2.901179740390218 edge_5_4_0_0 + 2.37352341935456 edge_5_6_0_0
   + 2.788316883548977 edge_5_7_0_0 + 2.143242712952345 edge_5_8_0_0
   + 1.247121067757054 edge_5_10_0_0 + 0.2982565534777621 edge_5_11_0_0
   + 0.3045679314826506 edge_5_12_0_0 + 0.2385126143903623 edge_5_13_0_0
   + 0.2814039243155207 edge_5_14_0_0 - 0.2139612448580777 edge_5_16_0_0
   - 0.0315910684692673 edge_5_17_0_0 + 0.4554901979155165 edge_5_19_0_0
   + 2.344847068938251 edge_5_20_0_0 - 1.079222475174204 edge_6_1_0_0
   - 1.06959820239619 edge_6_2_0_0 - 0.8303768155349666 edge_6_3_0_0
   - 0.4586445012366633 edge_6_4_0_0 - 0.5890092471311231 edge_6_5_0_0
   + 0.1766222382343928 edge_6_7_0_0 - 0.0901047706812344 edge_6_8_0_0
   - 0.1705258204415216 edge_6_10_0_0 - 0.2897595839013729 edge_6_12_0_0
   - 0.754691991082184 edge_7_2_0_0 - 0.1535078235585882 edge_7_4_0_0
   - 0.2301521061648728 edge_7_5_0_0 + 0.4126769112171201 edge_7_6_0_0
   + 0.3727726880168741 edge_7_8_0_0 + 0.4359637192039573 edge_7_10_0_0
   - 0.045905139910984 edge_7_11_0_0 - 0.121920556077622 edge_7_12_0_0
   - 0.2086238170012385 edge_7_13_0_0 - 0.7303217963228232 edge_7_16_0_0
   - 0.3188778017232387 edge_7_19_0_0 - 0.1611691100395074 edge_7_20_0_0
   + 0.3159841771155814 edge_8_1_0_0 + 0.8789655716720149 edge_8_2_0_0
   - 0.155087670984367 edge_8_3_0_0 + 2.140347771252385 edge_8_4_0_0
   + 1.431130499710365 edge_8_5_0_0 + 0.4436252832636391 edge_8_6_0_0
   + 2.871875532664482 edge_8_7_0_0 + 0.6136719365285216 edge_8_10_0_0
   + 0.2375375371380113 edge_8_11_0_0 + 0.928104497338143 edge_8_12_0_0
   + 1.586177431486965 edge_8_13_0_0 - 0.4849951964525406 edge_8_14_0_0
   + 0.0440897687182944 edge_8_15_0_0 + 0.5519155788985444 edge_8_16_0_0
   - 0.4767450054281505 edge_8_17_0_0 + 0.9038237668110766 edge_8_19_0_0
   + 1.123355585198239 edge_8_20_0_0 + 1.590404615850712 edge_10_1_0_0
   + 1.276008634680291 edge_10_2_0_0 + 0.2585652093768704 edge_10_3_0_0
   + 0.1775097484138729 edge_10_4_0_0 + 1.553132946331138 edge_10_5_0_0
   + 0.5344621814294997 edge_10_6_0_0 + 1.110494552792649 edge_10_7_0_0
   + 2.463567392998758 edge_10_8_0_0 + 3.298406176848104 edge_10_11_0_0
   + 3.547125942478088 edge_10_12_0_0 + 1.569443364397308 edge_10_13_0_0
   + 2.07799717626896 edge_10_14_0_0 + 0.2090732999265056 edge_10_15_0_0
   + 0.7815286874507639 edge_10_16_0_0 + 1.055525152332119 edge_10_17_0_0
   + 1.446063936739902 edge_10_19_0_0 + 3.374462935434914 edge_10_20_0_0
   - 1.525382960670803 edge_11_8_0_0 + 0.8935854565031363 edge_11_12_0_0
   - 0.2255486359945241 edge_11_14_0_0 + 0.3415397039878769 edge_11_15_0_0
   - 0.0843546753990593 edge_11_16_0_0 - 0.0420592873549576 edge_11_17_0_0
   + 0.1120332534421752 edge_11_19_0_0 + 0.1333286687497104 edge_12_1_0_0
   - 0.4345384388466367 edge_12_2_0_0 - 1.660625815838157 edge_12_3_0_0
   + 0.0451388902760171 edge_12_5_0_0 - 0.2437382573170769 edge_12_6_0_0
   + 0.0526965890509807 edge_12_7_0_0 + 0.2744834339651956 edge_12_8_0_0
   - 0.0151681532327232 edge_12_10_0_0 + 1.29868045709364 edge_12_11_0_0
   + 1.971395761900584 edge_12_13_0_0 + 2.456584491305626 edge_12_14_0_0
   + 0.2085532086317815 edge_12_15_0_0 + 0.7045264720278059 edge_12_16_0_0
   + 0.8027577015944375 edge_12_17_0_0 + 1.47828281133082 edge_12_19_0_0
   + 1.516279631157927 edge_12_20_0_0 + 0.1337706076206912 edge_13_2_0_0
   + 1.058152559236125 edge_13_4_0_0 + 0.0985392423910551 edge_13_5_0_0
   - 0.4172088963474584 edge_13_6_0_0 + 0.4772642877515488 edge_13_7_0_0
   + 0.2211988032329257 edge_13_8_0_0 - 0.4048022215656387 edge_13_11_0_0
   + 0.3255502700177001 edge_13_14_0_0 + 0.1993769171704466 edge_13_15_0_0
   + 1.509699027217292 edge_13_16_0_0 + 0.8392067869324796 edge_13_17_0_0
   + 1.720898453371887 edge_13_19_0_0 + 0.8029790363071702 edge_13_20_0_0
   + 0.0149955528220286 edge_14_11_0_0 + 0.1523934838414928 edge_14_12_0_0
   + 0.7300952435497231 edge_14_13_0_0 - 0.0209237363054784 edge_14_15_0_0
   - 0.2649487259443724 edge_14_16_0_0 - 0.1103040871777352 edge_14_17_0_0
   + 0.3415870234321498 edge_14_19_0_0 + 0.7218631827375855 edge_14_20_0_0
   - 0.2296150916493855 edge_15_11_0_0 + 0.244582340389293 edge_15_13_0_0
   + 0.3503571367190352 edge_15_16_0_0 + 0.3841695541557822 edge_15_17_0_0
   + 0.4091234305159507 edge_15_19_0_0 + 0.3589227508844274 edge_15_20_0_0
   - 0.4129009337784351 edge_16_1_0_0 - 0.637102560522941 edge_16_6_0_0
   - 0.3518149146504062 edge_16_8_0_0 - 0.2478093751636452 edge_16_10_0_0
   + 0.0297911834600074 edge_16_11_0_0 + 0.7528175991292502 edge_16_13_0_0
   - 0.0874691572910672 edge_16_14_0_0 + 1.776352668545526 edge_16_15_0_0
   + 0.699761143402678 edge_16_17_0_0 + 0.3695263282139781 edge_16_19_0_0
   + 1.098168266900973 edge_16_20_0_0 + 0.8730083708046402 edge_17_13_0_0
   - 0.00861371978007442 edge_17_14_0_0 + 0.8763450583223472 edge_17_15_0_0
   + 0.2042392753395481 edge_17_16_0_0 + 1.590769740030062 edge_17_19_0_0
   - 0.2994921397786194 edge_19_1_0_0 - 0.3970591514692142 edge_19_2_0_0
   - 1.573269373001475 edge_19_4_0_0 - 0.7153112861009607 edge_19_5_0_0
   - 0.434098525886239 edge_19_7_0_0 - 0.3377326312889503 edge_19_8_0_0
   - 0.2954205270278287 edge_19_10_0_0 + 0.2572506839439147 edge_19_11_0_0
   + 0.135122348087528 edge_19_12_0_0 + 1.27656632045275 edge_19_13_0_0
   + 0.7833119400445624 edge_19_14_0_0 + 0.7259760129780272 edge_19_15_0_0
   + 1.023404597047983 edge_19_16_0_0 + 2.65652778021786 edge_19_17_0_0
   + 1.741575067497011 edge_19_20_0_0 - 0.7871117562607134 edge_20_15_0_0
   - 0.5462780060629218 edge_20_16_0_0
Subject To
 one_parent_1: edge_0_1_0_0 + edge_2_1_0_0 + edge_3_1_0_0 + edge_5_1_0_0
   + edge_6_1_0_0 + edge_8_1_0_0 + edge_10_1_0_0 + edge_12_1_0_0
   + edge_16_1_0_0 + edge_19_1_0_0 = 1
 consume_one_flow_unit_1: flow_0_1_0_0 - flow_1_2_0_0 - flow_1_3_0_0
   - flow_1_4_0_0 - flow_1_5_0_0 - flow_1_6_0_0 - flow_1_7_0_0
   - flow_1_8_0_0 - flow_1_10_0_0 - flow_1_11_0_0 - flow_1_12_0_0
   - flow_1_15_0_0 - flow_1_16_0_0 - flow_1_17_0_0 - flow_1_19_0_0
   + flow_2_1_0_0 + flow_3_1_0_0 + flow_5_1_0_0 + flow_6_1_0_0
   + flow_8_1_0_0 + flow_10_1_0_0 + flow_12_1_0_0 + flow_16_1_0_0
   + flow_19_1_0_0 = 1
 one_parent_2: edge_0_2_0_0 + edge_1_2_0_0 + edge_3_2_0_0 + edge_4_2_0_0
   + edge_5_2_0_0 + edge_6_2_0_0 + edge_7_2_0_0 + edge_8_2_0_0
   + edge_10_2_0_0 + edge_12_2_0_0 + edge_13_2_0_0 + edge_19_2_0_0 = 1
 consume_one_flow_unit_2: flow_0_2_0_0 + flow_1_2_0_0 - flow_2_1_0_0
   - flow_2_3_0_0 - flow_2_4_0_0 - flow_2_5_0_0 - flow_2_6_0_0
   - flow_2_7_0_0 - flow_2_8_0_0 - flow_2_10_0_0 - flow_2_11_0_0
   - flow_2_12_0_0 - flow_2_13_0_0 - flow_2_14_0_0 - flow_2_15_0_0
   - flow_2_16_0_0 - flow_2_17_0_0 - flow_2_19_0_0 - flow_2_20_0_0
   + flow_3_2_0_0 + flow_4_2_0_0 + flow_5_2_0_0 + flow_6_2_0_0
   + flow_7_2_0_0 + flow_8_2_0_0 + flow_10_2_0_0 + flow_12_2_0_0
   + flow_13_2_0_0 + flow_19_2_0_0 = 1
 one_parent_3: edge_0_3_0_0 + edge_1_3_0_0 + edge_2_3_0_0 + edge_4_3_0_0
   + edge_5_3_0_0 + edge_6_3_0_0 + edge_8_3_0_0 + edge_10_3_0_0
   + edge_12_3_0_0 = 1
 consume_one_flow_unit_3: flow_0_3_0_0 + flow_1_3_0_0 + flow_2_3_0_0
   - flow_3_1_0_0 - flow_3_2_0_0 - flow_3_4_0_0 - flow_3_5_0_0
   - flow_3_6_0_0 - flow_3_8_0_0 - flow_3_10_0_0 + flow_4_3_0_0
   + flow_5_3_0_0 + flow_6_3_0_0 + flow_8_3_0_0 + flow_10_3_0_0
   + flow_12_3_0_0 = 1
 one_parent_4: edge_0_4_0_0 + edge_1_4_0_0 + edge_2_4_0_0 + edge_3_4_0_0
   + edge_5_4_0_0 + edge_6_4_0_0 + edge_7_4_0_0 + edge_8_4_0_0
   + edge_10_4_0_0 + edge_13_4_0_0 + edge_19_4_0_0 = 1
 consume_one_flow_unit_4: flow_0_4_0_0 + flow_1_4_0_0 + flow_2_4_0_0
   + flow_3_4_0_0 - flow_4_2_0_0 - flow_4_3_0_0 - flow_4_5_0_0
   - flow_4_6_0_0 - flow_4_7_0_0 - flow_4_8_0_0 - flow_4_10_0_0
   - flow_4_13_0_0 - flow_4_16_0_0 - flow_4_19_0_0 - flow_4_20_0_0
   + flow_5_4_0_0 + flow_6_4_0_0 + flow_7_4_0_0 + flow_8_4_0_0
   + flow_10_4_0_0 + flow_13_4_0_0 + flow_19_4_0_0 = 1
 one_parent_5: edge_0_5_0_0 + edge_1_5_0_0 + edge_2_5_0_0 + edge_3_5_0_0
   + edge_4_5_0_0 + edge_6_5_0_0 + edge_7_5_0_0 + edge_8_5_0_0
   + edge_10_5_0_0 + edge_12_5_0_0 + edge_13_5_0_0 + edge_19_5_0_0 = 1
 consume_one_flow_unit_5: flow_0_5_0_0 + flow_1_5_0_0 + flow_2_5_0_0
   + flow_3_5_0_0 + flow_4_5_0_0 - flow_5_1_0_0 - flow_5_2_0_0
   - flow_5_3_0_0 - flow_5_4_0_0 - flow_5_6_0_0 - flow_5_7_0_0
   - flow_5_8_0_0 - flow_5_10_0_0 - flow_5_11_0_0 - flow_5_12_0_0
   - flow_5_13_0_0 - flow_5_14_0_0 - flow_5_16_0_0 - flow_5_17_0_0
   - flow_5_19_0_0 - flow_5_20_0_0 + flow_6_5_0_0 + flow_7_5_0_0
   + flow_8_5_0_0 + flow_10_5_0_0 + flow_12_5_0_0 + flow_13_5_0_0
   + flow_19_5_0_0 = 1
 one_parent_6: edge_0_6_0_0 + edge_1_6_0_0 + edge_2_6_0_0 + edge_3_6_0_0
   + edge_4_6_0_0 + edge_5_6_0_0 + edge_7_6_0_0 + edge_8_6_0_0
   + edge_10_6_0_0 + edge_12_6_0_0 + edge_13_6_0_0 + edge_16_6_0_0 = 1
 consume_one_flow_unit_6: flow_0_6_0_0 + flow_1_6_0_0 + flow_2_6_0_0
   + flow_3_6_0_0 + flow_4_6_0_0 + flow_5_6_0_0 - flow_6_1_0_0
   - flow_6_2_0_0 - flow_6_3_0_0 - flow_6_4_0_0 - flow_6_5_0_0
   - flow_6_7_0_0 - flow_6_8_0_0 - flow_6_10_0_0 - flow_6_12_0_0
   + flow_7_6_0_0 + flow_8_6_0_0 + flow_10_6_0_0 + flow_12_6_0_0
   + flow_13_6_0_0 + flow_16_6_0_0 = 1
 one_parent_7: edge_1_7_0_0 + edge_2_7_0_0 + edge_4_7_0_0 + edge_5_7_0_0
   + edge_6_7_0_0 + edge_8_7_0_0 + edge_10_7_0_0 + edge_12_7_0_0
   + edge_13_7_0_0 + edge_19_7_0_0 = 1
 consume_one_flow_unit_7: flow_1_7_0_0 + flow_2_7_0_0 + flow_4_7_0_0
   + flow_5_7_0_0 + flow_6_7_0_0 - flow_7_2_0_0 - flow_7_4_0_0
   - flow_7_5_0_0 - flow_7_6_0_0 - flow_7_8_0_0 - flow_7_10_0_0
   - flow_7_11_0_0 - flow_7_12_0_0 - flow_7_13_0_0 - flow_7_16_0_0
   - flow_7_19_0_0 - flow_7_20_0_0 + flow_8_7_0_0 + flow_10_7_0_0
   + flow_12_7_0_0 + flow_13_7_0_0 + flow_19_7_0_0 = 1
 one_parent_8: edge_0_8_0_0 + edge_1_8_0_0 + edge_2_8_0_0 + edge_3_8_0_0
   + edge_4_8_0_0 + edge_5_8_0_0 + edge_6_8_0_0 + edge_7_8_0_0
   + edge_10_8_0_0 + edge_11_8_0_0 + edge_12_8_0_0 + edge_13_8_0_0
   + edge_16_8_0_0 + edge_19_8_0_0 = 1
 consume_one_flow_unit_8: flow_0_8_0_0 + flow_1_8_0_0 + flow_2_8_0_0
   + flow_3_8_0_0 + flow_4_8_0_0 + flow_5_8_0_0 + flow_6_8_0_0
   + flow_7_8_0_0 - flow_8_1_0_0 - flow_8_2_0_0 - flow_8_3_0_0
   - flow_8_4_0_0 - flow_8_5_0_0 - flow_8_6_0_0 - flow_8_7_0_0
   - flow_8_10_0_0 - flow_8_11_0_0 - flow_8_12_0_0 - flow_8_13_0_0
   - flow_8_14_0_0 - flow_8_15_0_0 - flow_8_16_0_0 - flow_8_17_0_0
   - flow_8_19_0_0 - flow_8_20_0_0 + flow_10_8_0_0 + flow_11_8_0_0
   + flow_12_8_0_0 + flow_13_8_0_0 + flow_16_8_0_0 + flow_19_8_0_0 = 1
 one_parent_9: = 1
 consume_one_flow_unit_9: = 1
 one_parent_10: edge_0_10_0_0 + edge_1_10_0_0 + edge_2_10_0_0
   + edge_3_10_0_0 + edge_4_10_0_0 + edge_5_10_0_0 + edge_6_10_0_0
   + edge_7_10_0_0 + edge_8_10_0_0 + edge_12_10_0_0 + edge_16_10_0_0
   + edge_19_10_0_0 = 1
 consume_one_flow_unit_10: flow_0_10_0_0 + flow_1_10_0_0 + flow_2_10_0_0
   + flow_3_10_0_0 + flow_4_10_0_0 + flow_5_10_0_0 + flow_6_10_0_0
   + flow_7_10_0_0 + flow_8_10_0_0 - flow_10_1_0_0 - flow_10_2_0_0
   - flow_10_3_0_0 - flow_10_4_0_0 - flow_10_5_0_0 - flow_10_6_0_0
   - flow_10_7_0_0 - flow_10_8_0_0 - flow_10_11_0_0 - flow_10_12_0_0
   - flow_10_13_0_0 - flow_10_14_0_0 - flow_10_15_0_0 - flow_10_16_0_0
   - flow_10_17_0_0 - flow_10_19_0_0 - flow_10_20_0_0 + flow_12_10_0_0
   + flow_16_10_0_0 + flow_19_10_0_0 = 1
 one_parent_11: edge_1_11_0_0 + edge_2_11_0_0 + edge_5_11_0_0
   + edge_7_11_0_0 + edge_8_11_0_0 + edge_10_11_0_0 + edge_12_11_0_0
   + edge_13_11_0_0 + edge_14_11_0_0 + edge_15_11_0_0 + edge_16_11_0_0
   + edge_19_11_0_0 = 1
 consume_one_flow_unit_11: flow_1_11_0_0 + flow_2_11_0_0 + flow_5_11_0_0
   + flow_7_11_0_0 + flow_8_11_0_0 + flow_10_11_0_0 - flow_11_8_0_0
   - flow_11_12_0_0 - flow_11_14_0_0 - flow_11_15_0_0 - flow_11_16_0_0
   - flow_11_17_0_0 - flow_11_19_0_0 + flow_12_11_0_0 + flow_13_11_0_0
   + flow_14_11_0_0 + flow_15_11_0_0 + flow_16_11_0_0 + flow_19_11_0_0 = 1
 one_parent_12: edge_0_12_0_0 + edge_1_12_0_0 + edge_2_12_0_0
   + edge_5_12_0_0 + edge_6_12_0_0 + edge_7_12_0_0 + edge_8_12_0_0
   + edge_10_12_0_0 + edge_11_12_0_0 + edge_14_12_0_0 + edge_19_12_0_0 = 1
 consume_one_flow_unit_12: flow_0_12_0_0 + flow_1_12_0_0 + flow_2_12_0_0
   + flow_5_12_0_0 + flow_6_12_0_0 + flow_7_12_0_0 + flow_8_12_0_0
   + flow_10_12_0_0 + flow_11_12_0_0 - flow_12_1_0_0 - flow_12_2_0_0
   - flow_12_3_0_0 - flow_12_5_0_0 - flow_12_6_0_0 - flow_12_7_0_0
   - flow_12_8_0_0 - flow_12_10_0_0 - flow_12_11_0_0 - flow_12_13_0_0
   - flow_12_14_0_0 - flow_12_15_0_0 - flow_12_16_0_0 - flow_12_17_0_0
   - flow_12_19_0_0 - flow_12_20_0_0 + flow_14_12_0_0 + flow_19_12_0_0 = 1
 one_parent_13: edge_0_13_0_0 + edge_2_13_0_0 + edge_4_13_0_0
   + edge_5_13_0_0 + edge_7_13_0_0 + edge_8_13_0_0 + edge_10_13_0_0
   + edge_12_13_0_0 + edge_14_13_0_0 + edge_15_13_0_0 + edge_16_13_0_0
   + edge_17_13_0_0 + edge_19_13_0_0 = 1
 consume_one_flow_unit_13: flow_0_13_0_0 + flow_2_13_0_0 + flow_4_13_0_0
   + flow_5_13_0_0 + flow_7_13_0_0 + flow_8_13_0_0 + flow_10_13_0_0
   + flow_12_13_0_0 - flow_13_2_0_0 - flow_13_4_0_0 - flow_13_5_0_0
   - flow_13_6_0_0 - flow_13_7_0_0 - flow_13_8_0_0 - flow_13_11_0_0
   - flow_13_14_0_0 - flow_13_15_0_0 - flow_13_16_0_0 - flow_13_17_0_0
   - flow_13_19_0_0 - flow_13_20_0_0 + flow_14_13_0_0 + flow_15_13_0_0
   + flow_16_13_0_0 + flow_17_13_0_0 + flow_19_13_0_0 = 1
 one_parent_14: edge_2_14_0_0 + edge_5_14_0_0 + edge_8_14_0_0
   + edge_10_14_0_0 + edge_11_14_0_0 + edge_12_14_0_0 + edge_13_14_0_0
   + edge_16_14_0_0 + edge_17_14_0_0 + edge_19_14_0_0 = 1
 consume_one_flow_unit_14: flow_2_14_0_0 + flow_5_14_0_0 + flow_8_14_0_0
   + flow_10_14_0_0 + flow_11_14_0_0 + flow_12_14_0_0 + flow_13_14_0_0
   - flow_14_11_0_0 - flow_14_12_0_0 - flow_14_13_0_0 - flow_14_15_0_0
   - flow_14_16_0_0 - flow_14_17_0_0 - flow_14_19_0_0 - flow_14_20_0_0
   + flow_16_14_0_0 + flow_17_14_0_0 + flow_19_14_0_0 = 1
 one_parent_15: edge_1_15_0_0 + edge_2_15_0_0 + edge_8_15_0_0
   + edge_10_15_0_0 + edge_11_15_0_0 + edge_12_15_0_0 + edge_13_15_0_0
   + edge_14_15_0_0 + edge_16_15_0_0 + edge_17_15_0_0 + edge_19_15_0_0
   + edge_20_15_0_0 = 1
 consume_one_flow_unit_15: flow_1_15_0_0 + flow_2_15_0_0 + flow_8_15_0_0
   + flow_10_15_0_0 + flow_11_15_0_0 + flow_12_15_0_0 + flow_13_15_0_0
   + flow_14_15_0_0 - flow_15_11_0_0 - flow_15_13_0_0 - flow_15_16_0_0
   - flow_15_17_0_0 - flow_15_19_0_0 - flow_15_20_0_0 + flow_16_15_0_0
   + flow_17_15_0_0 + flow_19_15_0_0 + flow_20_15_0_0 = 1
 one_parent_16: edge_1_16_0_0 + edge_2_16_0_0 + edge_4_16_0_0
   + edge_5_16_0_0 + edge_7_16_0_0 + edge_8_16_0_0 + edge_10_16_0_0
   + edge_11_16_0_0 + edge_12_16_0_0 + edge_13_16_0_0 + edge_14_16_0_0
   + edge_15_16_0_0 + edge_17_16_0_0 + edge_19_16_0_0 + edge_20_16_0_0 = 1
 consume_one_flow_unit_16: flow_1_16_0_0 + flow_2_16_0_0 + flow_4_16_0_0
   + flow_5_16_0_0 + flow_7_16_0_0 + flow_8_16_0_0 + flow_10_16_0_0
   + flow_11_16_0_0 + flow_12_16_0_0 + flow_13_16_0_0 + flow_14_16_0_0
   + flow_15_16_0_0 - flow_16_1_0_0 - flow_16_6_0_0 - flow_16_8_0_0
   - flow_16_10_0_0 - flow_16_11_0_0 - flow_16_13_0_0 - flow_16_14_0_0
   - flow_16_15_0_0 - flow_16_17_0_0 - flow_16_19_0_0 - flow_16_20_0_0
   + flow_17_16_0_0 + flow_19_16_0_0 + flow_20_16_0_0 = 1
 one_parent_17: edge_1_17_0_0 + edge_2_17_0_0 + edge_5_17_0_0
   + edge_8_17_0_0 + edge_10_17_0_0 + edge_11_17_0_0 + edge_12_17_0_0
   + edge_13_17_0_0 + edge_14_17_0_0 + edge_15_17_0_0 + edge_16_17_0_0
   + edge_19_17_0_0 = 1
 consume_one_flow_unit_17: flow_1_17_0_0 + flow_2_17_0_0 + flow_5_17_0_0
   + flow_8_17_0_0 + flow_10_17_0_0 + flow_11_17_0_0 + flow_12_17_0_0
   + flow_13_17_0_0 + flow_14_17_0_0 + flow_15_17_0_0 + flow_16_17_0_0
   - flow_17_13_0_0 - flow_17_14_0_0 - flow_17_15_0_0 - flow_17_16_0_0
   - flow_17_19_0_0 + flow_19_17_0_0 = 1
 one_parent_18: = 1
 consume_one_flow_unit_18: = 1
 one_parent_19: edge_1_19_0_0 + edge_2_19_0_0 + edge_4_19_0_0
   + edge_5_19_0_0 + edge_7_19_0_0 + edge_8_19_0_0 + edge_10_19_0_0
   + edge_11_19_0_0 + edge_12_19_0_0 + edge_13_19_0_0 + edge_14_19_0_0
   + edge_15_19_0_0 + edge_16_19_0_0 + edge_17_19_0_0 = 1
 consume_one_flow_unit_19: flow_1_19_0_0 + flow_2_19_0_0 + flow_4_19_0_0
   + flow_5_19_0_0 + flow_7_19_0_0 + flow_8_19_0_0 + flow_10_19_0_0
   + flow_11_19_0_0 + flow_12_19_0_0 + flow_13_19_0_0 + flow_14_19_0_0
   + flow_15_19_0_0 + flow_16_19_0_0 + flow_17_19_0_0 - flow_19_1_0_0
   - flow_19_2_0_0 - flow_19_4_0_0 - flow_19_5_0_0 - flow_19_7_0_0
   - flow_19_8_0_0 - flow_19_10_0_0 - flow_19_11_0_0 - flow_19_12_0_0
   - flow_19_13_0_0 - flow_19_14_0_0 - flow_19_15_0_0 - flow_19_16_0_0
   - flow_19_17_0_0 - flow_19_20_0_0 = 1
 one_parent_20: edge_2_20_0_0 + edge_4_20_0_0 + edge_5_20_0_0
   + edge_7_20_0_0 + edge_8_20_0_0 + edge_10_20_0_0 + edge_12_20_0_0
   + edge_13_20_0_0 + edge_14_20_0_0 + edge_15_20_0_0 + edge_16_20_0_0
   + edge_19_20_0_0 = 1
 consume_one_flow_unit_20: flow_2_20_0_0 + flow_4_20_0_0 + flow_5_20_0_0
   + flow_7_20_0_0 + flow_8_20_0_0 + flow_10_20_0_0 + flow_12_20_0_0
   + flow_13_20_0_0 + flow_14_20_0_0 + flow_15_20_0_0 + flow_16_20_0_0
   + flow_19_20_0_0 - flow_20_15_0_0 - flow_20_16_0_0 = 1
 root_flow: flow_0_1_0_0 + flow_0_2_0_0 + flow_0_3_0_0 + flow_0_4_0_0
   + flow_0_5_0_0 + flow_0_6_0_0 + flow_0_8_0_0 + flow_0_10_0_0
   + flow_0_12_0_0 + flow_0_13_0_0 = 20
 inactive_no_flow_0_1_0_0: flow_0_1_0_0 - 1000 edge_0_1_0_0 <= 0
 inactive_no_flow_0_2_0_0: flow_0_2_0_0 - 1000 edge_0_2_0_0 <= 0
 inactive_no_flow_0_3_0_0: flow_0_3_0_0 - 1000 edge_0_3_0_0 <= 0
 inactive_no_flow_0_4_0_0: flow_0_4_0_0 - 1000 edge_0_4_0_0 <= 0
 inactive_no_flow_0_5_0_0: flow_0_5_0_0 - 1000 edge_0_5_0_0 <= 0
 inactive_no_flow_0_6_0_0: flow_0_6_0_0 - 1000 edge_0_6_0_0 <= 0
 inactive_no_flow_0_8_0_0: flow_0_8_0_0 - 1000 edge_0_8_0_0 <= 0
 inactive_no_flow_0_10_0_0: flow_0_10_0_0 - 1000 edge_0_10_0_0 <= 0
 inactive_no_flow_0_12_0_0: flow_0_12_0_0 - 1000 edge_0_12_0_0 <= 0
 inactive_no_flow_0_13_0_0: flow_0_13_0_0 - 1000 edge_0_13_0_0 <= 0
 inactive_no_flow_1_2_0_0: flow_1_2_0_0 - 1000 edge_1_2_0_0 <= 0
 inactive_no_flow_1_3_0_0: flow_1_3_0_0 - 1000 edge_1_3_0_0 <= 0
 inactive_no_flow_1_4_0_0: flow_1_4_0_0 - 1000 edge_1_4_0_0 <= 0
 inactive_no_flow_1_5_0_0: flow_1_5_0_0 - 1000 edge_1_5_0_0 <= 0
 inactive_no_flow_1_6_0_0: flow_1_6_0_0 - 1000 edge_1_6_0_0 <= 0
 inactive_no_flow_1_7_0_0: flow_1_7_0_0 - 1000 edge_1_7_0_0 <= 0
 inactive_no_flow_1_8_0_0: flow_1_8_0_0 - 1000 edge_1_8_0_0 <= 0
 inactive_no_flow_1_10_0_0: flow_1_10_0_0 - 1000 edge_1_10_0_0 <= 0
 inactive_no_flow_1_11_0_0: flow_1_11_0_0 - 1000 edge_1_11_0_0 <= 0
 inactive_no_flow_1_12_0_0: flow_1_12_0_0 - 1000 edge_1_12_0_0 <= 0
 inactive_no_flow_1_15_0_0: flow_1_15_0_0 - 1000 edge_1_15_0_0 <= 0
 inactive_no_flow_1_16_0_0: flow_1_16_0_0 - 1000 edge_1_16_0_0 <= 0
 inactive_no_flow_1_17_0_0: flow_1_17_0_0 - 1000 edge_1_17_0_0 <= 0
 inactive_no_flow_1_19_0_0: flow_1_19_0_0 - 1000 edge_1_19_0_0 <= 0
 inactive_no_flow_2_1_0_0: flow_2_1_0_0 - 1000 edge_2_1_0_0 <= 0
 inactive_no_flow_2_3_0_0: flow_2_3_0_0 - 1000 edge_2_3_0_0 <= 0
 inactive_no_flow_2_4_0_0: flow_2_4_0_0 - 1000 edge_2_4_0_0 <= 0
 inactive_no_flow_2_5_0_0: flow_2_5_0_0 - 1000 edge_2_5_0_0 <= 0
 inactive_no_flow_2_6_0_0: flow_2_6_0_0 - 1000 edge_2_6_0_0 <= 0
 inactive_no_flow_2_7_0_0: flow_2_7_0_0 - 1000 edge_2_7_0_0 <= 0
 inactive_no_flow_2_8_0_0: flow_2_8_0_0 - 1000 edge_2_8_0_0 <= 0
 inactive_no_flow_2_10_0_0: flow_2_10_0_0 - 1000 edge_2_10_0_0 <= 0
 inactive_no_flow_2_11_0_0: flow_2_11_0_0 - 1000 edge_2_11_0_0 <= 0
 inactive_no_flow_2_12_0_0: flow_2_12_0_0 - 1000 edge_2_12_0_0 <= 0
 inactive_no_flow_2_13_0_0: flow_2_13_0_0 - 1000 edge_2_13_0_0 <= 0
 inactive_no_flow_2_14_0_0: flow_2_14_0_0 - 1000 edge_2_14_0_0 <= 0
 inactive_no_flow_2_15_0_0: flow_2_15_0_0 - 1000 edge_2_15_0_0 <= 0
 inactive_no_flow_2_16_0_0: flow_2_16_0_0 - 1000 edge_2_16_0_0 <= 0
 inactive_no_flow_2_17_0_0: flow_2_17_0_0 - 1000 edge_2_17_0_0 <= 0
 inactive_no_flow_2_19_0_0: flow_2_19_0_0 - 1000 edge_2_19_0_0 <= 0
 inactive_no_flow_2_20_0_0: flow_2_20_0_0 - 1000 edge_2_20_0_0 <= 0
 inactive_no_flow_3_1_0_0: flow_3_1_0_0 - 1000 edge_3_1_0_0 <= 0
 inactive_no_flow_3_2_0_0: flow_3_2_0_0 - 1000 edge_3_2_0_0 <= 0
 inactive_no_flow_3_4_0_0: flow_3_4_0_0 - 1000 edge_3_4_0_0 <= 0
 inactive_no_flow_3_5_0_0: flow_3_5_0_0 - 1000 edge_3_5_0_0 <= 0
 inactive_no_flow_3_6_0_0: flow_3_6_0_0 - 1000 edge_3_6_0_0 <= 0
 inactive_no_flow_3_8_0_0: flow_3_8_0_0 - 1000 edge_3_8_0_0 <= 0
 inactive_no_flow_3_10_0_0: flow_3_10_0_0 - 1000 edge_3_10_0_0 <= 0
 inactive_no_flow_4_2_0_0: flow_4_2_0_0 - 1000 edge_4_2_0_0 <= 0
 inactive_no_flow_4_3_0_0: flow_4_3_0_0 - 1000 edge_4_3_0_0 <= 0
 inactive_no_flow_4_5_0_0: flow_4_5_0_0 - 1000 edge_4_5_0_0 <= 0
 inactive_no_flow_4_6_0_0: flow_4_6_0_0 - 1000 edge_4_6_0_0 <= 0
 inactive_no_flow_4_7_0_0: flow_4_7_0_0 - 1000 edge_4_7_0_0 <= 0
 inactive_no_flow_4_8_0_0: flow_4_8_0_0 - 1000 edge_4_8_0_0 <= 0
 inactive_no_flow_4_10_0_0: flow_4_10_0_0 - 1000 edge_4_10_0_0 <= 0
 inactive_no_flow_4_13_0_0: flow_4_13_0_0 - 1000 edge_4_13_0_0 <= 0
 inactive_no_flow_4_16_0_0: flow_4_16_0_0 - 1000 edge_4_16_0_0 <= 0
 inactive_no_flow_4_19_0_0: flow_4_19_0_0 - 1000 edge_4_19_0_0 <= 0
 inactive_no_flow_4_20_0_0: flow_4_20_0_0 - 1000 edge_4_20_0_0 <= 0
 inactive_no_flow_5_1_0_0: flow_5_1_0_0 - 1000 edge_5_1_0_0 <= 0
 inactive_no_flow_5_2_0_0: flow_5_2_0_0 - 1000 edge_5_2_0_0 <= 0
 inactive_no_flow_5_3_0_0: flow_5_3_0_0 - 1000 edge_5_3_0_0 <= 0
 inactive_no_flow_5_4_0_0: flow_5_4_0_0 - 1000 edge_5_4_0_0 <= 0
 inactive_no_flow_5_6_0_0: flow_5_6_0_0 - 1000 edge_5_6_0_0 <= 0
 inactive_no_flow_5_7_0_0: flow_5_7_0_0 - 1000 edge_5_7_0_0 <= 0
 inactive_no_flow_5_8_0_0: flow_5_8_0_0 - 1000 edge_5_8_0_0 <= 0
 inactive_no_flow_5_10_0_0: flow_5_10_0_0 - 1000 edge_5_10_0_0 <= 0
 inactive_no_flow_5_11_0_0: flow_5_11_0_0 - 1000 edge_5_11_0_0 <= 0
 inactive_no_flow_5_12_0_0: flow_5_12_0_0 - 1000 edge_5_12_0_0 <= 0
 inactive_no_flow_5_13_0_0: flow_5_13_0_0 - 1000 edge_5_13_0_0 <= 0
 inactive_no_flow_5_14_0_0: flow_5_14_0_0 - 1000 edge_5_14_0_0 <= 0
 inactive_no_flow_5_16_0_0: flow_5_16_0_0 - 1000 edge_5_16_0_0 <= 0
 inactive_no_flow_5_17_0_0: flow_5_17_0_0 - 1000 edge_5_17_0_0 <= 0
 inactive_no_flow_5_19_0_0: flow_5_19_0_0 - 1000 edge_5_19_0_0 <= 0
 inactive_no_flow_5_20_0_0: flow_5_20_0_0 - 1000 edge_5_20_0_0 <= 0
 inactive_no_flow_6_1_0_0: flow_6_1_0_0 - 1000 edge_6_1_0_0 <= 0
 inactive_no_flow_6_2_0_0: flow_6_2_0_0 - 1000 edge_6_2_0_0 <= 0
 inactive_no_flow_6_3_0_0: flow_6_3_0_0 - 1000 edge_6_3_0_0 <= 0
 inactive_no_flow_6_4_0_0: flow_6_4_0_0 - 1000 edge_6_4_0_0 <= 0
 inactive_no_flow_6_5_0_0: flow_6_5_0_0 - 1000 edge_6_5_0_0 <= 0
 inactive_no_flow_6_7_0_0: flow_6_7_0_0 - 1000 edge_6_7_0_0 <= 0
 inactive_no_flow_6_8_0_0: flow_6_8_0_0 - 1000 edge_6_8_0_0 <= 0
 inactive_no_flow_6_10_0_0: flow_6_10_0_0 - 1000 edge_6_10_0_0 <= 0
 inactive_no_flow_6_12_0_0: flow_6_12_0_0 - 1000 edge_6_12_0_0 <= 0
 inactive_no_flow_7_2_0_0: flow_7_2_0_0 - 1000 edge_7_2_0_0 <= 0
 inactive_no_flow_7_4_0_0: flow_7_4_0_0 - 1000 edge_7_4_0_0 <= 0
 inactive_no_flow_7_5_0_0: flow_7_5_0_0 - 1000 edge_7_5_0_0 <= 0
 inactive_no_flow_7_6_0_0: flow_7_6_0_0 - 1000 edge_7_6_0_0 <= 0
 inactive_no_flow_7_8_0_0: flow_7_8_0_0 - 1000 edge_7_8_0_0 <= 0
 inactive_no_flow_7_10_0_0: flow_7_10_0_0 - 1000 edge_7_10_0_0 <= 0
 inactive_no_flow_7_11_0_0: flow_7_11_0_0 - 1000 edge_7_11_0_0 <= 0
 inactive_no_flow_7_12_0_0: flow_7_12_0_0 - 1000 edge_7_12_0_0 <= 0
 inactive_no_flow_7_13_0_0: flow_7_13_0_0 - 1000 edge_7_13_0_0 <= 0
 inactive_no_flow_7_16_0_0: flow_7_16_0_0 - 1000 edge_7_16_0_0 <= 0
 inactive_no_flow_7_19_0_0: flow_7_19_0_0 - 1000 edge_7_19_0_0 <= 0
 inactive_no_flow_7_20_0_0: flow_7_20_0_0 - 1000 edge_7_20_0_0 <= 0
 inactive_no_flow_8_1_0_0: flow_8_1_0_0 - 1000 edge_8_1_0_0 <= 0
 inactive_no_flow_8_2_0_0: flow_8_2_0_0 - 1000 edge_8_2_0_0 <= 0
 inactive_no_flow_8_3_0_0: flow_8_3_0_0 - 1000 edge_8_3_0_0 <= 0
 inactive_no_flow_8_4_0_0: flow_8_4_0_0 - 1000 edge_8_4_0_0 <= 0
 inactive_no_flow_8_5_0_0: flow_8_5_0_0 - 1000 edge_8_5_0_0 <= 0
 inactive_no_flow_8_6_0_0: flow_8_6_0_0 - 1000 edge_8_6_0_0 <= 0
 inactive_no_flow_8_7_0_0: flow_8_7_0_0 - 1000 edge_8_7_0_0 <= 0
 inactive_no_flow_8_10_0_0: flow_8_10_0_0 - 1000 edge_8_10_0_0 <= 0
 inactive_no_flow_8_11_0_0: flow_8_11_0_0 - 1000 edge_8_11_0_0 <= 0
 inactive_no_flow_8_12_0_0: flow_8_12_0_0 - 1000 edge_8_12_0_0 <= 0
 inactive_no_flow_8_13_0_0: flow_8_13_0_0 - 1000 edge_8_13_0_0 <= 0
 inactive_no_flow_8_14_0_0: flow_8_14_0_0 - 1000 edge_8_14_0_0 <= 0
 inactive_no_flow_8_15_0_0: flow_8_15_0_0 - 1000 edge_8_15_0_0 <= 0
 inactive_no_flow_8_16_0_0: flow_8_16_0_0 - 1000 edge_8_16_0_0 <= 0
 inactive_no_flow_8_17_0_0: flow_8_17_0_0 - 1000 edge_8_17_0_0 <= 0
 inactive_no_flow_8_19_0_0: flow_8_19_0_0 - 1000 edge_8_19_0_0 <= 0
 inactive_no_flow_8_20_0_0: flow_8_20_0_0 - 1000 edge_8_20_0_0 <= 0
 inactive_no_flow_10_1_0_0: flow_10_1_0_0 - 1000 edge_10_1_0_0 <= 0
 inactive_no_flow_10_2_0_0: flow_10_2_0_0 - 1000 edge_10_2_0_0 <= 0
 inactive_no_flow_10_3_0_0: flow_10_3_0_0 - 1000 edge_10_3_0_0 <= 0
 inactive_no_flow_10_4_0_0: flow_10_4_0_0 - 1000 edge_10_4_0_0 <= 0
 inactive_no_flow_10_5_0_0: flow_10_5_0_0 - 1000 edge_10_5_0_0 <= 0
 inactive_no_flow_10_6_0_0: flow_10_6_0_0 - 1000 edge_10_6_0_0 <= 0
 inactive_no_flow_10_7_0_0: flow_10_7_0_0 - 1000 edge_10_7_0_0 <= 0
 inactive_no_flow_10_8_0_0: flow_10_8_0_0 - 1000 edge_10_8_0_0 <= 0
 inactive_no_flow_10_11_0_0: flow_10_11_0_0 - 1000 edge_10_11_0_0 <= 0
 inactive_no_flow_10_12_0_0: flow_10_12_0_0 - 1000 edge_10_12_0_0 <= 0
 inactive_no_flow_10_13_0_0: flow_10_13_0_0 - 1000 edge_10_13_0_0 <= 0
 inactive_no_flow_10_14_0_0: flow_10_14_0_0 - 1000 edge_10_14_0_0 <= 0
 inactive_no_flow_10_15_0_0: flow_10_15_0_0 - 1000 edge_10_15_0_0 <= 0
 inactive_no_flow_10_16_0_0: flow_10_16_0_0 - 1000 edge_10_16_0_0 <= 0
 inactive_no_flow_10_17_0_0: flow_10_17_0_0 - 1000 edge_10_17_0_0 <= 0
 inactive_no_flow_10_19_0_0: flow_10_19_0_0 - 1000 edge_10_19_0_0 <= 0
 inactive_no_flow_10_20_0_0: flow_10_20_0_0 - 1000 edge_10_20_0_0 <= 0
 inactive_no_flow_11_8_0_0: flow_11_8_0_0 - 1000 edge_11_8_0_0 <= 0
 inactive_no_flow_11_12_0_0: flow_11_12_0_0 - 1000 edge_11_12_0_0 <= 0
 inactive_no_flow_11_14_0_0: flow_11_14_0_0 - 1000 edge_11_14_0_0 <= 0
 inactive_no_flow_11_15_0_0: flow_11_15_0_0 - 1000 edge_11_15_0_0 <= 0
 inactive_no_flow_11_16_0_0: flow_11_16_0_0 - 1000 edge_11_16_0_0 <= 0
 inactive_no_flow_11_17_0_0: flow_11_17_0_0 - 1000 edge_11_17_0_0 <= 0
 inactive_no_flow_11_19_0_0: flow_11_19_0_0 - 1000 edge_11_19_0_0 <= 0
 inactive_no_flow_12_1_0_0: flow_12_1_0_0 - 1000 edge_12_1_0_0 <= 0
 inactive_no_flow_12_2_0_0: flow_12_2_0_0 - 1000 edge_12_2_0_0 <= 0
 inactive_no_flow_12_3_0_0: flow_12_3_0_0 - 1000 edge_12_3_0_0 <= 0
 inactive_no_flow_12_5_0_0: flow_12_5_0_0 - 1000 edge_12_5_0_0 <= 0
 inactive_no_flow_12_6_0_0: flow_12_6_0_0 - 1000 edge_12_6_0_0 <= 0
 inactive_no_flow_12_7_0_0: flow_12_7_0_0 - 1000 edge_12_7_0_0 <= 0
 inactive_no_flow_12_8_0_0: flow_12_8_0_0 - 1000 edge_12_8_0_0 <= 0
 inactive_no_flow_12_10_0_0: flow_12_10_0_0 - 1000 edge_12_10_0_0 <= 0
 inactive_no_flow_12_11_0_0: flow_12_11_0_0 - 1000 edge_12_11_0_0 <= 0
 inactive_no_flow_12_13_0_0: flow_12_13_0_0 - 1000 edge_12_13_0_0 <= 0
 inactive_no_flow_12_14_0_0: flow_12_14_0_0 - 1000 edge_12_14_0_0 <= 0
 inactive_no_flow_12_15_0_0: flow_12_15_0_0 - 1000 edge_12_15_0_0 <= 0
 inactive_no_flow_12_16_0_0: flow_12_16_0_0 - 1000 edge_12_16_0_0 <= 0
 inactive_no_flow_12_17_0_0: flow_12_17_0_0 - 1000 edge_12_17_0_0 <= 0
 inactive_no_flow_12_19_0_0: flow_12_19_0_0 - 1000 edge_12_19_0_0 <= 0
 inactive_no_flow_12_20_0_0: flow_12_20_0_0 - 1000 edge_12_20_0_0 <= 0
 inactive_no_flow_13_2_0_0: flow_13_2_0_0 - 1000 edge_13_2_0_0 <= 0
 inactive_no_flow_13_4_0_0: flow_13_4_0_0 - 1000 edge_13_4_0_0 <= 0
 inactive_no_flow_13_5_0_0: flow_13_5_0_0 - 1000 edge_13_5_0_0 <= 0
 inactive_no_flow_13_6_0_0: flow_13_6_0_0 - 1000 edge_13_6_0_0 <= 0
 inactive_no_flow_13_7_0_0: flow_13_7_0_0 - 1000 edge_13_7_0_0 <= 0
 inactive_no_flow_13_8_0_0: flow_13_8_0_0 - 1000 edge_13_8_0_0 <= 0
 inactive_no_flow_13_11_0_0: flow_13_11_0_0 - 1000 edge_13_11_0_0 <= 0
 inactive_no_flow_13_14_0_0: flow_13_14_0_0 - 1000 edge_13_14_0_0 <= 0
 inactive_no_flow_13_15_0_0: flow_13_15_0_0 - 1000 edge_13_15_0_0 <= 0
 inactive_no_flow_13_16_0_0: flow_13_16_0_0 - 1000 edge_13_16_0_0 <= 0
 inactive_no_flow_13_17_0_0: flow_13_17_0_0 - 1000 edge_13_17_0_0 <= 0
 inactive_no_flow_13_19_0_0: flow_13_19_0_0 - 1000 edge_13_19_0_0 <= 0
 inactive_no_flow_13_20_0_0: flow_13_20_0_0 - 1000 edge_13_20_0_0 <= 0
 inactive_no_flow_14_11_0_0: flow_14_11_0_0 - 1000 edge_14_11_0_0 <= 0
 inactive_no_flow_14_12_0_0: flow_14_12_0_0 - 1000 edge_14_12_0_0 <= 0
 inactive_no_flow_14_13_0_0: flow_14_13_0_0 - 1000 edge_14_13_0_0 <= 0
 inactive_no_flow_14_15_0_0: flow_14_15_0_0 - 1000 edge_14_15_0_0 <= 0
 inactive_no_flow_14_16_0_0: flow_14_16_0_0 - 1000 edge_14_16_0_0 <= 0
 inactive_no_flow_14_17_0_0: flow_14_17_0_0 - 1000 edge_14_17_0_0 <= 0
 inactive_no_flow_14_19_0_0: flow_14_19_0_0 - 1000 edge_14_19_0_0 <= 0
 inactive_no_flow_14_20_0_0: flow_14_20_0_0 - 1000 edge_14_20_0_0 <= 0
 inactive_no_flow_15_11_0_0: flow_15_11_0_0 - 1000 edge_15_11_0_0 <= 0
 inactive_no_flow_15_13_0_0: flow_15_13_0_0 - 1000 edge_15_13_0_0 <= 0
 inactive_no_flow_15_16_0_0: flow_15_16_0_0 - 1000 edge_15_16_0_0 <= 0
 inactive_no_flow_15_17_0_0: flow_15_17_0_0 - 1000 edge_15_17_0_0 <= 0
 inactive_no_flow_15_19_0_0: flow_15_19_0_0 - 1000 edge_15_19_0_0 <= 0
 inactive_no_flow_15_20_0_0: flow_15_20_0_0 - 1000 edge_15_20_0_0 <= 0
 inactive_no_flow_16_1_0_0: flow_16_1_0_0 - 1000 edge_16_1_0_0 <= 0
 inactive_no_flow_16_6_0_0: flow_16_6_0_0 - 1000 edge_16_6_0_0 <= 0
 inactive_no_flow_16_8_0_0: flow_16_8_0_0 - 1000 edge_16_8_0_0 <= 0
 inactive_no_flow_16_10_0_0: flow_16_10_0_0 - 1000 edge_16_10_0_0 <= 0
 inactive_no_flow_16_11_0_0: flow_16_11_0_0 - 1000 edge_16_11_0_0 <= 0
 inactive_no_flow_16_13_0_0: flow_16_13_0_0 - 1000 edge_16_13_0_0 <= 0
 inactive_no_flow_16_14_0_0: flow_16_14_0_0 - 1000 edge_16_14_0_0 <= 0
 inactive_no_flow_16_15_0_0: flow_16_15_0_0 - 1000 edge_16_15_0_0 <= 0
 inactive_no_flow_16_17_0_0: flow_16_17_0_0 - 1000 edge_16_17_0_0 <= 0
 inactive_no_flow_16_19_0_0: flow_16_19_0_0 - 1000 edge_16_19_0_0 <= 0
 inactive_no_flow_16_20_0_0: flow_16_20_0_0 - 1000 edge_16_20_0_0 <= 0
 inactive_no_flow_17_13_0_0: flow_17_13_0_0 - 1000 edge_17_13_0_0 <= 0
 inactive_no_flow_17_14_0_0: flow_17_14_0_0 - 1000 edge_17_14_0_0 <= 0
 inactive_no_flow_17_15_0_0: flow_17_15_0_0 - 1000 edge_17_15_0_0 <= 0
 inactive_no_flow_17_16_0_0: flow_17_16_0_0 - 1000 edge_17_16_0_0 <= 0
 inactive_no_flow_17_19_0_0: flow_17_19_0_0 - 1000 edge_17_19_0_0 <= 0
 inactive_no_flow_19_1_0_0: flow_19_1_0_0 - 1000 edge_19_1_0_0 <= 0
 inactive_no_flow_19_2_0_0: flow_19_2_0_0 - 1000 edge_19_2_0_0 <= 0
 inactive_no_flow_19_4_0_0: flow_19_4_0_0 - 1000 edge_19_4_0_0 <= 0
 inactive_no_flow_19_5_0_0: flow_19_5_0_0 - 1000 edge_19_5_0_0 <= 0
 inactive_no_flow_19_7_0_0: flow_19_7_0_0 - 1000 edge_19_7_0_0 <= 0
 inactive_no_flow_19_8_0_0: flow_19_8_0_0 - 1000 edge_19_8_0_0 <= 0
 inactive_no_flow_19_10_0_0: flow_19_10_0_0 - 1000 edge_19_10_0_0 <= 0
 inactive_no_flow_19_11_0_0: flow_19_11_0_0 - 1000 edge_19_11_0_0 <= 0
 inactive_no_flow_19_12_0_0: flow_19_12_0_0 - 1000 edge_19_12_0_0 <= 0
 inactive_no_flow_19_13_0_0: flow_19_13_0_0 - 1000 edge_19_13_0_0 <= 0
 inactive_no_flow_19_14_0_0: flow_19_14_0_0 - 1000 edge_19_14_0_0 <= 0
 inactive_no_flow_19_15_0_0: flow_19_15_0_0 - 1000 edge_19_15_0_0 <= 0
 inactive_no_flow_19_16_0_0: flow_19_16_0_0 - 1000 edge_19_16_0_0 <= 0
 inactive_no_flow_19_17_0_0: flow_19_17_0_0 - 1000 edge_19_17_0_0 <= 0
 inactive_no_flow_19_20_0_0: flow_19_20_0_0 - 1000 edge_19_20_0_0 <= 0
 inactive_no_flow_20_15_0_0: flow_20_15_0_0 - 1000 edge_20_15_0_0 <= 0
 inactive_no_flow_20_16_0_0: flow_20_16_0_0 - 1000 edge_20_16_0_0 <= 0
Bounds
Binaries
 edge_0_1_0_0 edge_0_2_0_0 edge_0_3_0_0 edge_0_4_0_0 edge_0_5_0_0
 edge_0_6_0_0 edge_0_8_0_0 edge_0_10_0_0 edge_0_12_0_0 edge_0_13_0_0
 edge_1_2_0_0 edge_1_3_0_0 edge_1_4_0_0 edge_1_5_0_0 edge_1_6_0_0
 edge_1_7_0_0 edge_1_8_0_0 edge_1_10_0_0 edge_1_11_0_0 edge_1_12_0_0
 edge_1_15_0_0 edge_1_16_0_0 edge_1_17_0_0 edge_1_19_0_0 edge_2_1_0_0
 edge_2_3_0_0 edge_2_4_0_0 edge_2_5_0_0 edge_2_6_0_0 edge_2_7_0_0
 edge_2_8_0_0 edge_2_10_0_0 edge_2_11_0_0 edge_2_12_0_0 edge_2_13_0_0
 edge_2_14_0_0 edge_2_15_0_0 edge_2_16_0_0 edge_2_17_0_0 edge_2_19_0_0
 edge_2_20_0_0 edge_3_1_0_0 edge_3_2_0_0 edge_3_4_0_0 edge_3_5_0_0
 edge_3_6_0_0 edge_3_8_0_0 edge_3_10_0_0 edge_4_2_0_0 edge_4_3_0_0
 edge_4_5_0_0 edge_4_6_0_0 edge_4_7_0_0 edge_4_8_0_0 edge_4_10_0_0
 edge_4_13_0_0 edge_4_16_0_0 edge_4_19_0_0 edge_4_20_0_0 edge_5_1_0_0
 edge_5_2_0_0 edge_5_3_0_0 edge_5_4_0_0 edge_5_6_0_0 edge_5_7_0_0
 edge_5_8_0_0 edge_5_10_0_0 edge_5_11_0_0 edge_5_12_0_0 edge_5_13_0_0
 edge_5_14_0_0 edge_5_16_0_0 edge_5_17_0_0 edge_5_19_0_0 edge_5_20_0_0
 edge_6_1_0_0 edge_6_2_0_0 edge_6_3_0_0 edge_6_4_0_0 edge_6_5_0_0
 edge_6_7_0_0 edge_6_8_0_0 edge_6_10_0_0 edge_6_12_0_0 edge_7_2_0_0
 edge_7_4_0_0 edge_7_5_0_0 edge_7_6_0_0 edge_7_8_0_0 edge_7_10_0_0
 edge_7_11_0_0 edge_7_12_0_0 edge_7_13_0_0 edge_7_16_0_0 edge_7_19_0_0
 edge_7_20_0_0 edge_8_1_0_0 edge_8_2_0_0 edge_8_3_0_0 edge_8_4_0_0
 edge_8_5_0_0 edge_8_6_0_0 edge_8_7_0_0 edge_8_10_0_0 edge_8_11_0_0
 edge_8_12_0_0 edge_8_13_0_0 edge_8_14_0_0 edge_8_15_0_0 edge_8_16_0_0
 edge_8_17_0_0 edge_8_19_0_0 edge_8_20_0_0 edge_10_1_0_0 edge_10_2_0_0
 edge_10_3_0_0 edge_10_4_0_0 edge_10_5_0_0 edge_10_6_0_0 edge_10_7_0_0
 edge_10_8_0_0 edge_10_11_0_0 edge_10_12_0_0 edge_10_13_0_0 edge_10_14_0_0
 edge_10_15_0_0 edge_10_16_0_0 edge_10_17_0_0 edge_10_19_0_0 edge_10_20_0_0
 edge_11_8_0_0 edge_11_12_0_0 edge_11_14_0_0 edge_11_15_0_0 edge_11_16_0_0
 edge_11_17_0_0 edge_11_19_0_0 edge_12_1_0_0 edge_12_2_0_0 edge_12_3_0_0
 edge_12_5_0_0 edge_12_6_0_0 edge_12_7_0_0 edge_12_8_0_0 edge_12_10_0_0
 edge_12_11_0_0 edge_12_13_0_0 edge_12_14_0_0 edge_12_15_0_0 edge_12_16_0_0
 edge_12_17_0_0 edge_12_19_0_0 edge_12_20_0_0 edge_13_2_0_0 edge_13_4_0_0
 edge_13_5_0_0 edge_13_6_0_0 edge_13_7_0_0 edge_13_8_0_0 edge_13_11_0_0
 edge_13_14_0_0 edge_13_15_0_0 edge_13_16_0_0 edge_13_17_0_0 edge_13_19_0_0
 edge_13_20_0_0 edge_14_11_0_0 edge_14_12_0_0 edge_14_13_0_0 edge_14_15_0_0
 edge_14_16_0_0 edge_14_17_0_0 edge_14_19_0_0 edge_14_20_0_0 edge_15_11_0_0
 edge_15_13_0_0 edge_15_16_0_0 edge_15_17_0_0 edge_15_19_0_0 edge_15_20_0_0
 edge_16_1_0_0 edge_16_6_0_0 edge_16_8_0_0 edge_16_10_0_0 edge_16_11_0_0
 edge_16_13_0_0 edge_16_14_0_0 edge_16_15_0_0 edge_16_17_0_0 edge_16_19_0_0
 edge_16_20_0_0 edge_17_13_0_0 edge_17_14_0_0 edge_17_15_0_0 edge_17_16_0_0
 edge_17_19_0_0 edge_19_1_0_0 edge_19_2_0_0 edge_19_4_0_0 edge_19_5_0_0
 edge_19_7_0_0 edge_19_8_0_0 edge_19_10_0_0 edge_19_11_0_0 edge_19_12_0_0
 edge_19_13_0_0 edge_19_14_0_0 edge_19_15_0_0 edge_19_16_0_0 edge_19_17_0_0
 edge_19_20_0_0 edge_20_15_0_0 edge_20_16_0_0
End
